     Program PWSCF v.6.8 starts on  2Feb2022 at 16:11:59

     band groups division:  nbgrp     =      16
     R & G space division:  proc/nbgrp/npool/nimage =      32

     Reading input from scf.in

     Current dimensions of program PWSCF are:
     Max number of different atomic species (ntypx) = 10
     Max number of k-points (npk) =  40000
     Max angular momentum in pseudopotentials (lmaxx) =  4
     Message from routine scan_end:
     No INFO block end statement, possibly corrupted file
     Message from routine scan_end:
     No INFO block end statement, possibly corrupted file
     Message from routine scan_end:
     No INFO block end statement, possibly corrupted file

     IMPORTANT: XC functional enforced from input :
     Exchange-correlation= PBE
                           (   1   4   3   4   0   0   0)
     Any further DFT definition will be discarded
     Please, verify this is what you really want

     Fixed quantization axis for GGA:     0.000000    0.000000    1.000000

     Subspace diagonalization in iterative solution of the eigenvalue problem:
     a serial algorithm will be used

     Using Slab Decomposition

     bravais-lattice index     =            0
     lattice parameter (alat)  =      11.1928  a.u.
     unit-cell volume          =    2344.5029 (a.u.)^3
     number of atoms/cell      =           16
     number of atomic types    =            3
     number of electrons       =       148.00
     number of Kohn-Sham states=          160
     kinetic-energy cutoff     =     300.0000  Ry
     charge density cutoff     =    1200.0000  Ry
     scf convergence threshold =      1.0E-06
     mixing beta               =       0.3000
     number of iterations used =            8  plain     mixing
     Exchange-correlation= PBE
                           (   1   4   3   4   0   0   0)
     Noncollinear calculation with spin-orbit

     celldm(1)=  11.192848  celldm(2)=   0.000000  celldm(3)=   0.000000
     celldm(4)=   0.000000  celldm(5)=   0.000000  celldm(6)=   0.000000

     crystal axes: (cart. coord. in units of alat)
               a(1) = (   1.000000   0.000000   0.000000 )
               a(2) = (   0.000000   1.743897   0.000000 )
               a(3) = (  -0.332749   0.000000   0.958756 )

     reciprocal axes: (cart. coord. in units 2 pi/alat)
               b(1) = (  1.000000  0.000000  0.347063 )
               b(2) = (  0.000000  0.573428  0.000000 )
               b(3) = (  0.000000  0.000000  1.043018 )

     PseudoPot. # 1 for Ru read from file:
     ./Ru_frl_rMDF.upf
     MD5 check sum: c9026eaeb3567b5b291d39eee14dd616
     Pseudo is Norm-conserving, Zval = 16.0
     Generated by new atomic code, or converted to UPF format
     Using radial grid of 1173 points,  4 beta functions with:
                l(1) =   0
                l(2) =   1
                l(3) =   2
                l(4) =   2

     PseudoPot. # 2 for Ru read from file:
     ./Ru_frl_rMDF.upf
     MD5 check sum: c9026eaeb3567b5b291d39eee14dd616
     Pseudo is Norm-conserving, Zval = 16.0
     Generated by new atomic code, or converted to UPF format
     Using radial grid of 1173 points,  4 beta functions with:
                l(1) =   0
                l(2) =   1
                l(3) =   2
                l(4) =   2

     PseudoPot. # 3 for Cl read from file:
     ./Cl.ccECP.upf
     MD5 check sum: a6dbb198d6702c28af0cb842dcffc0a5
     Pseudo is Norm-conserving, Zval =  7.0
     Generated by new atomic code, or converted to UPF format
     Using radial grid of 1149 points,  2 beta functions with:
                l(1) =   0
                l(2) =   2

     atomic species   valence    mass     pseudopotential
        Ru1           16.00   101.07000     Ru( 1.00)
        Ru2           16.00   101.07000     Ru( 1.00)
        Cl             7.00    35.45300     Cl( 1.00)

     Full LDA+U calculation (l_max = 2) with parameters (eV):
     U(  1) =   2.0000   J(  1) =   0.0000   B(  1) =   0.0000
     U(  2) =   2.0000   J(  2) =   0.0000   B(  2) =   0.0000
     LDA+U on averaged j=l+1/2,l-1/2 radial WFs

     No symmetry found

                                    s                        frac. trans.

      isym =  1     identity

 Time Reversal            0
 cryst.   s( 1) = (     1          0          0      )
                  (     0          1          0      )
                  (     0          0          1      )

 cart.    s( 1) = (  1.0000000  0.0000000  0.0000000 )
                  (  0.0000000  1.0000000  0.0000000 )
                  (  0.0000000  0.0000000  1.0000000 )

   Cartesian axes

     site n.     atom                  positions (alat units)
         1           Ru1 tau(   1) = (   0.5000000  -0.5794969   0.0000000  )
         2           Ru2 tau(   2) = (   0.0000000   0.2924515   0.0000000  )
         3           Ru2 tau(   3) = (   0.5000000   0.5794969   0.0000000  )
         4           Ru1 tau(   4) = (   0.0000000  -0.2924515   0.0000000  )
         5           Cl  tau(   5) = (  -0.3478632   0.8719483   0.2243490  )
         6           Cl  tau(   6) = (   0.1521368   0.0000000   0.2243490  )
         7           Cl  tau(   7) = (   0.3478632   0.8719483  -0.2243490  )
         8           Cl  tau(   8) = (  -0.1521368   0.0000000  -0.2243490  )
         9           Cl  tau(   9) = (  -0.1730366  -0.5723469  -0.2240613  )
        10           Cl  tau(  10) = (   0.3269634   0.2996014  -0.2240613  )
        11           Cl  tau(  11) = (   0.1730366  -0.5723469   0.2240613  )
        12           Cl  tau(  12) = (  -0.3269634   0.2996014   0.2240613  )
        13           Cl  tau(  13) = (   0.1730366   0.5723469   0.2240613  )
        14           Cl  tau(  14) = (  -0.3269634  -0.2996014   0.2240613  )
        15           Cl  tau(  15) = (  -0.1730366   0.5723469  -0.2240613  )
        16           Cl  tau(  16) = (   0.3269634  -0.2996014  -0.2240613  )

   Crystallographic axes

     site n.     atom                  positions (cryst. coord.)
         1           Ru1 tau(   1) = (  0.5000000 -0.3323000  0.0000000  )
         2           Ru2 tau(   2) = (  0.0000000  0.1677000  0.0000000  )
         3           Ru2 tau(   3) = (  0.5000000  0.3323000  0.0000000  )
         4           Ru1 tau(   4) = (  0.0000000 -0.1677000  0.0000000  )
         5           Cl  tau(   5) = ( -0.2700000  0.5000000  0.2340000  )
         6           Cl  tau(   6) = (  0.2300000  0.0000000  0.2340000  )
         7           Cl  tau(   7) = (  0.2700000  0.5000000 -0.2340000  )
         8           Cl  tau(   8) = ( -0.2300000  0.0000000 -0.2340000  )
         9           Cl  tau(   9) = ( -0.2508000 -0.3282000 -0.2337000  )
        10           Cl  tau(  10) = (  0.2492000  0.1718000 -0.2337000  )
        11           Cl  tau(  11) = (  0.2508000 -0.3282000  0.2337000  )
        12           Cl  tau(  12) = ( -0.2492000  0.1718000  0.2337000  )
        13           Cl  tau(  13) = (  0.2508000  0.3282000  0.2337000  )
        14           Cl  tau(  14) = ( -0.2492000 -0.1718000  0.2337000  )
        15           Cl  tau(  15) = ( -0.2508000  0.3282000 -0.2337000  )
        16           Cl  tau(  16) = (  0.2492000 -0.1718000 -0.2337000  )

     number of k points=     8
                       cart. coord. in units 2pi/alat
        k(    1) = (   0.0000000   0.0000000   0.0000000), wk =   0.0000000
        k(    2) = (   0.5000000   0.0000000   0.1735315), wk =   0.1428571
        k(    3) = (   0.0000000   0.2867142   0.0000000), wk =   0.1428571
        k(    4) = (   0.5000000   0.2867142   0.1735315), wk =   0.1428571
        k(    5) = (   0.0000000   0.0000000   0.5215090), wk =   0.1428571
        k(    6) = (   0.5000000   0.0000000   0.6950405), wk =   0.1428571
        k(    7) = (   0.0000000   0.2867142   0.5215090), wk =   0.1428571
        k(    8) = (   0.5000000   0.2867142   0.6950405), wk =   0.1428571

                       cryst. coord.
        k(    1) = (   0.0000000   0.0000000   0.0000000), wk =   0.0000000
        k(    2) = (   0.5000000   0.0000000   0.0000000), wk =   0.1428571
        k(    3) = (   0.0000000   0.5000000   0.0000000), wk =   0.1428571
        k(    4) = (   0.5000000   0.5000000   0.0000000), wk =   0.1428571
        k(    5) = (   0.0000000   0.0000000   0.5000000), wk =   0.1428571
        k(    6) = (   0.5000000   0.0000000   0.5000000), wk =   0.1428571
        k(    7) = (   0.0000000   0.5000000   0.5000000), wk =   0.1428571
        k(    8) = (   0.5000000   0.5000000   0.5000000), wk =   0.1428571

     Initial potential from superposition of free atoms

     starting charge  123.99026, renormalised to  148.00000
 --- in v_hubbard ---
Hub. E (dc, noflip, flip, total)    8.8198   9.0550   0.0000   0.2352
     Number of +U iterations with fixed ns =  0
     Starting occupations:
 --- enter write_ns ---
 LDA+U parameters:
U(  1) =   2.0000   J(  1) =   0.0000   B(  1) =   0.0000
U(  2) =   2.0000   J(  2) =   0.0000   B(  2) =   0.0000
atom    1   Tr[ns(na)] (up, down, total) =   5.00000  1.00000  6.00000
 eigenvalues:
  0.200  0.200  0.200  0.200  0.200  1.000  1.000  1.000  1.000  1.000
 eigenvectors:
  0.000  0.000  0.000  0.000  0.000  1.000  0.000  0.000  0.000  0.000
  0.000  0.000  0.000  0.000  0.000  0.000  1.000  0.000  0.000  0.000
  0.000  0.000  0.000  0.000  0.000  0.000  0.000  1.000  0.000  0.000
  0.000  0.000  0.000  0.000  0.000  0.000  0.000  0.000  1.000  0.000
  0.000  0.000  0.000  0.000  0.000  0.000  0.000  0.000  0.000  1.000
  1.000  0.000  0.000  0.000  0.000  0.000  0.000  0.000  0.000  0.000
  0.000  1.000  0.000  0.000  0.000  0.000  0.000  0.000  0.000  0.000
  0.000  0.000  1.000  0.000  0.000  0.000  0.000  0.000  0.000  0.000
  0.000  0.000  0.000  1.000  0.000  0.000  0.000  0.000  0.000  0.000
  0.000  0.000  0.000  0.000  1.000  0.000  0.000  0.000  0.000  0.000
 occupations, | n_(i1, i2)^(sigma1, sigma2) |:
  1.000  0.000  0.000  0.000  0.000  0.000  0.000  0.000  0.000  0.000
  0.000  1.000  0.000  0.000  0.000  0.000  0.000  0.000  0.000  0.000
  0.000  0.000  1.000  0.000  0.000  0.000  0.000  0.000  0.000  0.000
  0.000  0.000  0.000  1.000  0.000  0.000  0.000  0.000  0.000  0.000
  0.000  0.000  0.000  0.000  1.000  0.000  0.000  0.000  0.000  0.000
  0.000  0.000  0.000  0.000  0.000  0.200  0.000  0.000  0.000  0.000
  0.000  0.000  0.000  0.000  0.000  0.000  0.200  0.000  0.000  0.000
  0.000  0.000  0.000  0.000  0.000  0.000  0.000  0.200  0.000  0.000
  0.000  0.000  0.000  0.000  0.000  0.000  0.000  0.000  0.200  0.000
  0.000  0.000  0.000  0.000  0.000  0.000  0.000  0.000  0.000  0.200
atomic mx, my, mz =     0.000000    0.000000    4.000000
atom    2   Tr[ns(na)] (up, down, total) =   1.00000  5.00000  6.00000
 eigenvalues:
  0.200  0.200  0.200  0.200  0.200  1.000  1.000  1.000  1.000  1.000
 eigenvectors:
  1.000  0.000  0.000  0.000  0.000  0.000  0.000  0.000  0.000  0.000
  0.000  1.000  0.000  0.000  0.000  0.000  0.000  0.000  0.000  0.000
  0.000  0.000  1.000  0.000  0.000  0.000  0.000  0.000  0.000  0.000
  0.000  0.000  0.000  1.000  0.000  0.000  0.000  0.000  0.000  0.000
  0.000  0.000  0.000  0.000  1.000  0.000  0.000  0.000  0.000  0.000
[...]
atom    2   Tr[ns(na)] (up, down, total) =   3.06183  3.87536  6.93719
 eigenvalues:
  0.224  0.464  0.481  0.500  0.519  0.920  0.947  0.955  0.959  0.967
 eigenvectors:
  0.000  0.000  0.008  0.002  0.000  0.959  0.017  0.008  0.001  0.003
  0.005  0.006  0.712  0.008  0.002  0.007  0.121  0.130  0.010  0.000
  0.266  0.713  0.004  0.000  0.000  0.000  0.000  0.008  0.006  0.001
  0.015  0.000  0.247  0.012  0.001  0.003  0.213  0.486  0.022  0.002
  0.692  0.277  0.002  0.000  0.000  0.000  0.001  0.024  0.003  0.000
  0.021  0.001  0.006  0.000  0.001  0.006  0.253  0.248  0.464  0.001
  0.000  0.000  0.000  0.001  0.692  0.006  0.131  0.031  0.138  0.001
  0.000  0.000  0.009  0.662  0.002  0.004  0.004  0.000  0.005  0.313
  0.001  0.000  0.005  0.003  0.302  0.014  0.260  0.062  0.344  0.009
  0.000  0.001  0.008  0.312  0.000  0.000  0.000  0.003  0.005  0.670
 occupations, | n_(i1, i2)^(sigma1, sigma2) |:
  0.917  0.032  0.003  0.016  0.007  0.006  0.005  0.018  0.004  0.016
  0.032  0.606  0.017  0.197  0.044  0.034  0.012  0.005  0.017  0.013
  0.003  0.017  0.407  0.036  0.094  0.071  0.002  0.004  0.012  0.014
  0.016  0.197  0.036  0.820  0.081  0.007  0.007  0.017  0.018  0.004
  0.007  0.044  0.094  0.081  0.312  0.079  0.002  0.004  0.007  0.007
  0.006  0.034  0.071  0.007  0.079  0.936  0.005  0.001  0.010  0.001
  0.005  0.012  0.002  0.007  0.002  0.005  0.652  0.013  0.199  0.003
  0.018  0.005  0.004  0.017  0.004  0.001  0.013  0.652  0.007  0.217
  0.004  0.017  0.012  0.018  0.007  0.010  0.199  0.007  0.818  0.013
  0.016  0.013  0.014  0.004  0.007  0.001  0.003  0.217  0.013  0.817
atomic mx, my, mz =    -0.045285    0.001532   -0.813530
atom    3   Tr[ns(na)] (up, down, total) =   3.06532  3.87612  6.94143
 eigenvalues:
  0.226  0.464  0.482  0.500  0.518  0.922  0.950  0.954  0.959  0.967
 eigenvectors:
  0.000  0.000  0.007  0.002  0.001  0.978  0.008  0.002  0.000  0.002
  0.009  0.004  0.714  0.016  0.003  0.002  0.000  0.250  0.001  0.000
  0.261  0.715  0.003  0.001  0.000  0.000  0.005  0.004  0.010  0.001
  0.026  0.000  0.236  0.016  0.005  0.006  0.008  0.694  0.007  0.001
  0.680  0.276  0.002  0.000  0.000  0.000  0.008  0.026  0.008  0.000
  0.022  0.001  0.003  0.000  0.000  0.001  0.441  0.019  0.510  0.001
  0.000  0.000  0.003  0.000  0.685  0.000  0.179  0.001  0.131  0.001
  0.000  0.001  0.017  0.655  0.001  0.005  0.002  0.000  0.005  0.314
  0.000  0.001  0.004  0.003  0.303  0.007  0.349  0.001  0.325  0.007
  0.000  0.002  0.012  0.306  0.000  0.000  0.000  0.002  0.003  0.674
 occupations, | n_(i1, i2)^(sigma1, sigma2) |:
  0.917  0.030  0.005  0.016  0.006  0.002  0.011  0.018  0.004  0.016
  0.030  0.600  0.028  0.191  0.059  0.032  0.002  0.005  0.015  0.012
  0.005  0.028  0.412  0.052  0.088  0.072  0.001  0.003  0.012  0.014
  0.016  0.191  0.052  0.814  0.105  0.005  0.013  0.016  0.001  0.003
  0.006  0.059  0.088  0.105  0.323  0.080  0.005  0.004  0.005  0.006
  0.002  0.032  0.072  0.005  0.080  0.936  0.005  0.001  0.009  0.001
  0.011  0.002  0.001  0.013  0.005  0.005  0.654  0.013  0.200  0.003
  0.018  0.005  0.003  0.016  0.004  0.001  0.013  0.652  0.007  0.217
  0.004  0.015  0.012  0.001  0.005  0.009  0.200  0.007  0.818  0.013
  0.016  0.012  0.014  0.003  0.006  0.001  0.003  0.217  0.013  0.817
atomic mx, my, mz =    -0.027363   -0.001760   -0.810798
atom    4   Tr[ns(na)] (up, down, total) =   3.86888  3.07489  6.94377
 eigenvalues:
  0.233  0.459  0.484  0.497  0.515  0.930  0.944  0.957  0.959  0.966
 eigenvectors:
  0.015  0.001  0.001  0.000  0.000  0.000  0.008  0.044  0.133  0.796
  0.005  0.000  0.003  0.004  0.630  0.001  0.021  0.126  0.151  0.057
  0.004  0.000  0.004  0.663  0.003  0.009  0.000  0.210  0.103  0.004
  0.005  0.000  0.002  0.002  0.355  0.000  0.013  0.191  0.308  0.124
  0.004  0.001  0.000  0.323  0.003  0.013  0.006  0.362  0.276  0.011
  0.655  0.004  0.003  0.000  0.000  0.237  0.065  0.015  0.016  0.005
  0.053  0.004  0.600  0.007  0.001  0.036  0.291  0.000  0.005  0.001
  0.031  0.629  0.008  0.000  0.001  0.274  0.040  0.016  0.000  0.001
  0.134  0.005  0.377  0.000  0.004  0.026  0.446  0.003  0.005  0.000
  0.094  0.355  0.002  0.001  0.002  0.403  0.110  0.032  0.001  0.000
 occupations, | n_(i1, i2)^(sigma1, sigma2) |:
  0.952  0.002  0.003  0.014  0.008  0.075  0.034  0.030  0.020  0.017
  0.002  0.672  0.013  0.208  0.002  0.040  0.019  0.004  0.025  0.003
  0.003  0.013  0.646  0.003  0.211  0.040  0.002  0.007  0.006  0.023
  0.014  0.208  0.003  0.796  0.021  0.043  0.005  0.023  0.014  0.021
  0.008  0.002  0.211  0.021  0.804  0.031  0.028  0.002  0.022  0.019
  0.075  0.040  0.040  0.043  0.031  0.472  0.152  0.120  0.192  0.155
  0.034  0.019  0.002  0.005  0.028  0.152  0.624  0.020  0.161  0.048
  0.030  0.004  0.007  0.023  0.002  0.120  0.020  0.610  0.044  0.188
  0.020  0.025  0.006  0.014  0.022  0.192  0.161  0.044  0.671  0.091
  0.017  0.003  0.023  0.021  0.019  0.155  0.048  0.188  0.091  0.698
atomic mx, my, mz =    -0.136055   -0.007386    0.793992
N of occupied +U levels =   27.766239
 --- exit write_ns ---
 --- in v_hubbard ---
Hub. E (dc, noflip, flip, total)   12.1293  12.5509  -0.0077   0.4139

[...]

          k = 0.5000 0.2867 0.6950     band energies (ev):

   -67.0801 -67.0641 -67.0637 -67.0335 -66.4115 -66.4069 -66.3958 -66.3898
   -39.0138 -39.0108 -38.8559 -38.8266 -38.8110 -38.7884 -38.6353 -38.6278
   -36.1151 -36.0552 -35.8481 -35.8267 -35.6956 -35.6512 -35.4698 -35.4679
   -35.3354 -35.3327 -35.3215 -35.2449 -35.2003 -35.1896 -35.1538 -35.1392
    -9.6004  -9.5896  -9.5593  -9.5461  -9.3856  -9.3642  -9.3395  -9.3164
    -9.1933  -9.1733  -9.1621  -9.1520  -9.1133  -9.0970  -9.0844  -9.0722
    -9.0518  -9.0485  -9.0193  -9.0159  -8.9816  -8.9747  -8.9538  -8.9384
     0.0320   0.0483   0.1463   0.1568   0.5449   0.5629   0.5810   0.5918
     0.8401   0.8432   0.8768   0.8781   1.0032   1.0136   1.0219   1.0289
     1.1200   1.1364   1.2515   1.2625   1.3111   1.3210   1.3326   1.3396
     1.5977   1.6055   1.6953   1.6987   1.8789   1.9000   1.9414   1.9621
     2.0078   2.0175   2.0482   2.0556   2.1508   2.1621   2.1953   2.2002
     2.3299   2.3360   2.4328   2.4398   2.5002   2.5088   2.5932   2.6079
     3.2723   3.2866   3.3041   3.3134   3.3667   3.3751   3.4133   3.4304
     3.6080   3.6121   3.6939   3.7023   3.8664   3.8714   3.9366   3.9421
     4.1453   4.1656   4.1818   4.1901   4.2383   4.2434   4.2709   4.2907
     4.3779   4.3836   4.7573   4.7770   5.1537   5.1777   5.2444   5.2575
     5.3630   5.3765   5.4377   5.4457   5.5218   5.5343   5.6247   5.6441
     5.8977   5.9151   5.9723   6.0174   6.9071   6.9192   7.0170   7.0614
     8.1253   8.1313   8.1428   8.1582   8.4118   8.4225   8.4355   8.4444

     occupation numbers
     1.0000   1.0000   1.0000   1.0000   1.0000   1.0000   1.0000   1.0000
     1.0000   1.0000   1.0000   1.0000   1.0000   1.0000   1.0000   1.0000
     1.0000   1.0000   1.0000   1.0000   1.0000   1.0000   1.0000   1.0000
     1.0000   1.0000   1.0000   1.0000   1.0000   1.0000   1.0000   1.0000
     1.0000   1.0000   1.0000   1.0000   1.0000   1.0000   1.0000   1.0000
     1.0000   1.0000   1.0000   1.0000   1.0000   1.0000   1.0000   1.0000
     1.0000   1.0000   1.0000   1.0000   1.0000   1.0000   1.0000   1.0000
     1.0000   1.0000   1.0000   1.0000   1.0000   1.0000   1.0000   1.0000
     1.0000   1.0000   1.0000   1.0000   1.0000   1.0000   1.0000   1.0000
     1.0000   1.0000   1.0000   1.0000   1.0000   1.0000   1.0000   1.0000
     1.0000   1.0000   1.0000   1.0000   1.0000   1.0000   1.0000   1.0000
     1.0000   1.0000   1.0000   1.0000   1.0000   1.0000   1.0000   1.0000
     1.0000   1.0000   1.0000   1.0000   1.0000   1.0000   1.0000   1.0000
     1.0000   1.0000   1.0000   1.0000   1.0000   1.0000   1.0000   1.0000
     1.0000   1.0000   1.0000   1.0000   1.0000   1.0000   1.0000   1.0000
     1.0000   1.0000   1.0000   1.0000   1.0000   1.0000   1.0000   1.0000
     1.0000   1.0000   1.0000   1.0000   1.0000   1.0000   1.0000   1.0000
     1.0000   1.0000   1.0000   1.0000   1.0000   1.0000   1.0000   1.0000
     1.0000   1.0000   1.0000   1.0000   0.0000   0.0000   0.0000   0.0000
     0.0000   0.0000   0.0000   0.0000   0.0000   0.0000   0.0000   0.0000

     highest occupied, lowest unoccupied level (ev):     6.1311    6.7001

!    total energy              =   -1117.02174489 Ry
     estimated scf accuracy    <       0.00066481 Ry

     The total energy is the sum of the following terms:
     one-electron contribution =    -667.12989530 Ry
     hartree contribution      =     382.67970000 Ry
     xc contribution           =    -151.74679931 Ry
     ewald contribution        =    -681.16132981 Ry
     Hubbard energy            =       0.41389020 Ry
     scf correction            =      -0.07731067 Ry

[...]

     ethr =  4.08E-07,  avg # of iterations =  5.2
 --- enter write_ns ---
 LDA+U parameters:
U(  1) =   2.0000   J(  1) =   0.0000   B(  1) =   0.0000
U(  2) =   2.0000   J(  2) =   0.0000   B(  2) =   0.0000
atom    1   Tr[ns(na)] (up, down, total) =   3.87239  3.07138  6.94377
 eigenvalues:
  0.229  0.460  0.484  0.499  0.516  0.929  0.945  0.957  0.959  0.966
 eigenvectors:
  0.013  0.001  0.001  0.000  0.001  0.002  0.018  0.027  0.175  0.763
  0.005  0.001  0.000  0.002  0.631  0.001  0.030  0.084  0.176  0.072
  0.004  0.000  0.014  0.658  0.001  0.006  0.003  0.246  0.067  0.002
  0.004  0.000  0.000  0.001  0.362  0.003  0.026  0.113  0.335  0.154
  0.005  0.001  0.002  0.321  0.002  0.009  0.014  0.445  0.197  0.005
  0.668  0.004  0.004  0.000  0.000  0.219  0.057  0.020  0.024  0.004
  0.065  0.002  0.586  0.017  0.000  0.067  0.246  0.005  0.012  0.001
  0.018  0.629  0.006  0.000  0.001  0.261  0.068  0.015  0.002  0.001
  0.158  0.004  0.386  0.001  0.001  0.057  0.368  0.011  0.013  0.000
  0.059  0.359  0.001  0.000  0.001  0.375  0.170  0.034  0.000  0.000
 occupations, | n_(i1, i2)^(sigma1, sigma2) |:
  0.953  0.000  0.003  0.016  0.008  0.072  0.034  0.025  0.021  0.010
  0.000  0.675  0.013  0.208  0.003  0.041  0.016  0.004  0.026  0.005
  0.003  0.013  0.646  0.002  0.210  0.042  0.005  0.006  0.003  0.022
  0.016  0.208  0.002  0.795  0.021  0.043  0.006  0.021  0.016  0.016
  0.008  0.003  0.210  0.021  0.804  0.036  0.029  0.003  0.025  0.017
  0.072  0.041  0.042  0.043  0.036  0.460  0.169  0.096  0.212  0.120
  0.034  0.016  0.005  0.006  0.029  0.169  0.619  0.015  0.149  0.043
  0.025  0.004  0.006  0.021  0.003  0.096  0.015  0.620  0.037  0.203
  0.021  0.026  0.003  0.016  0.025  0.212  0.149  0.037  0.650  0.083
  0.010  0.005  0.022  0.016  0.017  0.120  0.043  0.203  0.083  0.722
atomic mx, my, mz =    -0.124258   -0.004755    0.801008
atom    2   Tr[ns(na)] (up, down, total) =   3.06183  3.87592  6.93775
 eigenvalues:
  0.224  0.464  0.481  0.500  0.519  0.920  0.948  0.955  0.959  0.967
 eigenvectors:
  0.000  0.000  0.008  0.002  0.000  0.961  0.016  0.008  0.001  0.003
  0.005  0.006  0.714  0.008  0.000  0.007  0.115  0.133  0.012  0.000
  0.266  0.713  0.004  0.001  0.000  0.000  0.000  0.008  0.006  0.001
  0.015  0.000  0.246  0.012  0.000  0.003  0.206  0.489  0.026  0.002
  0.692  0.277  0.002  0.000  0.000  0.000  0.001  0.025  0.003  0.000
  0.021  0.001  0.005  0.000  0.001  0.006  0.253  0.252  0.460  0.001
  0.000  0.000  0.001  0.001  0.691  0.005  0.134  0.028  0.139  0.001
  0.000  0.000  0.009  0.663  0.001  0.004  0.004  0.000  0.005  0.313
  0.000  0.000  0.002  0.002  0.305  0.014  0.270  0.053  0.344  0.009
  0.000  0.001  0.008  0.311  0.001  0.000  0.000  0.003  0.005  0.671
 occupations, | n_(i1, i2)^(sigma1, sigma2) |:
  0.917  0.032  0.003  0.016  0.007  0.006  0.006  0.018  0.002  0.016
  0.032  0.605  0.017  0.197  0.044  0.033  0.012  0.005  0.016  0.013
  0.003  0.017  0.407  0.036  0.094  0.071  0.002  0.004  0.012  0.014
  0.016  0.197  0.036  0.820  0.081  0.006  0.008  0.017  0.016  0.004
  0.007  0.044  0.094  0.081  0.312  0.079  0.003  0.003  0.006  0.007
  0.006  0.033  0.071  0.006  0.079  0.936  0.005  0.001  0.010  0.001
  0.006  0.012  0.002  0.008  0.003  0.005  0.652  0.013  0.199  0.003
  0.018  0.005  0.004  0.017  0.003  0.001  0.013  0.652  0.007  0.217
  0.002  0.016  0.012  0.016  0.006  0.010  0.199  0.007  0.819  0.013
  0.016  0.013  0.014  0.004  0.007  0.001  0.003  0.217  0.013  0.817
atomic mx, my, mz =    -0.041606   -0.000342   -0.814087
atom    3   Tr[ns(na)] (up, down, total) =   3.06471  3.87616  6.94088
 eigenvalues:
  0.226  0.464  0.482  0.500  0.518  0.921  0.949  0.954  0.959  0.967
 eigenvectors:
  0.000  0.000  0.007  0.002  0.001  0.978  0.008  0.002  0.000  0.002
  0.009  0.004  0.717  0.016  0.001  0.002  0.000  0.250  0.001  0.000
  0.261  0.715  0.003  0.001  0.000  0.000  0.005  0.004  0.009  0.001
  0.026  0.000  0.238  0.015  0.003  0.006  0.005  0.699  0.006  0.001
  0.681  0.276  0.002  0.000  0.000  0.000  0.007  0.027  0.008  0.000
  0.022  0.001  0.003  0.000  0.001  0.002  0.445  0.014  0.512  0.002
  0.000  0.000  0.001  0.000  0.687  0.000  0.178  0.001  0.131  0.001
  0.000  0.001  0.016  0.657  0.001  0.004  0.002  0.001  0.005  0.313
  0.000  0.001  0.002  0.002  0.306  0.006  0.350  0.001  0.325  0.007
  0.000  0.002  0.012  0.306  0.001  0.000  0.000  0.002  0.003  0.674
 occupations, | n_(i1, i2)^(sigma1, sigma2) |:
  0.917  0.030  0.005  0.017  0.007  0.002  0.011  0.018  0.004  0.016
  0.030  0.600  0.028  0.191  0.059  0.031  0.001  0.004  0.014  0.012
  0.005  0.028  0.411  0.052  0.088  0.071  0.002  0.003  0.012  0.014
  0.017  0.191  0.052  0.814  0.105  0.005  0.013  0.016  0.001  0.003
  0.007  0.059  0.088  0.105  0.323  0.079  0.005  0.004  0.005  0.006
  0.002  0.031  0.071  0.005  0.079  0.936  0.005  0.001  0.009  0.001
  0.011  0.001  0.002  0.013  0.005  0.005  0.654  0.013  0.200  0.003
  0.018  0.004  0.003  0.016  0.004  0.001  0.013  0.652  0.007  0.217
  0.004  0.014  0.012  0.001  0.005  0.009  0.200  0.007  0.818  0.013
  0.016  0.012  0.014  0.003  0.006  0.001  0.003  0.217  0.013  0.817
atomic mx, my, mz =    -0.024617   -0.001557   -0.811450
atom    4   Tr[ns(na)] (up, down, total) =   3.86981  3.07472  6.94453
 eigenvalues:
  0.234  0.459  0.484  0.497  0.515  0.930  0.943  0.957  0.959  0.966
 eigenvectors:
  0.015  0.001  0.001  0.000  0.001  0.001  0.009  0.041  0.135  0.797
  0.005  0.000  0.003  0.005  0.630  0.001  0.021  0.122  0.156  0.057
  0.004  0.000  0.005  0.662  0.003  0.008  0.000  0.216  0.098  0.004
  0.005  0.000  0.002  0.002  0.355  0.000  0.013  0.182  0.318  0.123
  0.004  0.001  0.000  0.323  0.004  0.012  0.004  0.378  0.264  0.011
  0.655  0.004  0.003  0.000  0.000  0.240  0.064  0.013  0.015  0.005
  0.053  0.004  0.599  0.008  0.002  0.036  0.289  0.000  0.007  0.001
  0.031  0.630  0.007  0.000  0.001  0.273  0.041  0.015  0.001  0.001
  0.134  0.004  0.376  0.000  0.005  0.027  0.445  0.003  0.007  0.000
  0.095  0.355  0.002  0.001  0.001  0.402  0.113  0.030  0.000  0.000
 occupations, | n_(i1, i2)^(sigma1, sigma2) |:
  0.952  0.001  0.003  0.014  0.008  0.074  0.034  0.030  0.020  0.017
  0.001  0.672  0.013  0.208  0.003  0.040  0.019  0.005  0.025  0.003
  0.003  0.013  0.646  0.003  0.211  0.040  0.003  0.007  0.006  0.023
  0.014  0.208  0.003  0.796  0.021  0.043  0.004  0.023  0.013  0.021
  0.008  0.003  0.211  0.021  0.804  0.031  0.028  0.003  0.022  0.019
  0.074  0.040  0.040  0.043  0.031  0.473  0.152  0.120  0.191  0.156
  0.034  0.019  0.003  0.004  0.028  0.152  0.624  0.020  0.161  0.048
  0.030  0.005  0.007  0.023  0.003  0.120  0.020  0.609  0.045  0.187
  0.020  0.025  0.006  0.013  0.022  0.191  0.161  0.045  0.672  0.091
  0.017  0.003  0.023  0.021  0.019  0.156  0.048  0.187  0.091  0.697
atomic mx, my, mz =    -0.133797   -0.008634    0.795089
N of occupied +U levels =   27.766929
 --- exit write_ns ---
 --- in v_hubbard ---
Hub. E (dc, noflip, flip, total)   12.1281  12.5497  -0.0077   0.4139

     total energy              =   -1117.01680088 Ry
     estimated scf accuracy    <       0.00065556 Ry

     total magnetization       =    -0.43    -0.02    -0.02 Bohr mag/cell
     absolute magnetization    =     5.04 Bohr mag/cell

     iteration # 75     ecut=   300.00 Ry     beta= 0.30
     Davidson diagonalization with overlap

     c_bands:  3 eigenvalues not converged

     max_seconds     =    3600.00
     Calculation stopped in k-point loop, point #     8
     Calculation stopped in scf loop at iteration #    74

     Writing output data file pwscf_output/pwscf.save/

     General routines

     Parallel routines

     Hubbard U routines

   This run was terminated on:  17:12: 7   2Feb2022

   JOB DONE.